benchmarks_vrp/CMT5/fixed_c_size/CMT5_11.vrp
NAME: CMT5_11
TYPE: CVRP
COMMENT: 1291.29 - Cluster Nr.11
DIMENSION: 16
CAPACITY: 200
EDGE_WEIGHT_TYPE: EUC_2D
NODE_COORD_TYPE: TWOD_COORDS
NODE_COORD_SECTION: 
16 7 38
7 14 37
6 10 43
8 17 33
10 21 36
14 11 31
4 12 38
15 11 28
13 17 34
1 35 35
9 7 43
2 5 25
11 6 38
3 5 30
12 15 30
5 12 42
DEPOT_SECTION: 
1
-1
DEMAND_SECTION: 
11 16
15 6
5 21
4 5
16 28
13 3
2 23
1 0
8 41
7 11
9 27
12 26
10 19
14 7
6 9
3 2
EOF
