benchmarks_vrp/CMT5/fixed_c_size/CMT5_11.tour
NAME: CMT5_11 solution
TYPE: TOUR
TOUR_SECTION:
1 7 4 5 6 9 11 16 3 2 15 14 12 -1
1 8 13 10 -1
-1
EOF